c colouring generated by benchmark framework
p edge 689 23426
v 1 20
v 2 24
v 3 5
v 4 7
v 5 14
v 6 4
v 7 6
v 8 3
v 9 25
v 10 9
v 11 6
v 12 25
v 13 16
v 14 22
v 15 11
v 16 21
v 17 11
v 18 12
v 19 22
v 20 24
v 21 10
v 22 15
v 23 15
v 24 21
v 25 18
v 26 8
v 27 18
v 28 2
v 29 12
v 30 0
v 31 13
v 32 19
v 33 19
v 34 13
v 35 4
v 36 23
v 37 20
v 38 17
v 39 10
v 40 7
v 41 1
v 42 26
v 43 5
v 44 3
v 45 1
v 46 5
v 47 26
v 48 16
v 49 14
v 50 17
v 51 23
v 52 14
v 53 25
v 54 16
v 55 21
v 56 0
v 57 9
v 58 22
v 59 4
v 60 11
v 61 8
v 62 25
v 63 18
v 64 3
v 65 24
v 66 8
v 67 15
v 68 24
v 69 13
v 70 12
v 71 12
v 72 4
v 73 20
v 74 20
v 75 11
v 76 2
v 77 26
v 78 7
v 79 17
v 80 19
v 81 18
v 82 0
v 83 10
v 84 7
v 85 15
v 86 23
v 87 1
v 88 5
v 89 21
v 90 14
v 91 6
v 92 9
v 93 14
v 94 13
v 95 26
v 96 10
v 97 5
v 98 19
v 99 21
v 100 25
v 101 22
v 102 3
v 103 3
v 104 19
v 105 9
v 106 18
v 107 22
v 108 25
v 109 16
v 110 24
v 111 24
v 112 8
v 113 20
v 114 26
v 115 2
v 116 15
v 117 4
v 118 16
v 119 7
v 120 2
v 121 23
v 122 0
v 123 8
v 124 1
v 125 12
v 126 6
v 127 23
v 128 21
v 129 14
v 130 8
v 131 10
v 132 6
v 133 13
v 134 13
v 135 5
v 136 11
v 137 23
v 138 17
v 139 3
v 140 9
v 141 14
v 142 21
v 143 24
v 144 25
v 145 4
v 146 18
v 147 10
v 148 20
v 149 24
v 150 25
v 151 17
v 152 26
v 153 15
v 154 7
v 155 16
v 156 2
v 157 16
v 158 0
v 159 1
v 160 22
v 161 12
v 162 7
v 163 20
v 164 18
v 165 19
v 166 21
v 167 9
v 168 1
v 169 2
v 170 5
v 171 11
v 172 13
v 173 13
v 174 23
v 175 26
v 176 18
v 177 19
v 178 11
v 179 12
v 180 14
v 181 8
v 182 4
v 183 14
v 184 11
v 185 23
v 186 25
v 187 21
v 188 6
v 189 8
v 190 15
v 191 8
v 192 20
v 193 15
v 194 0
v 195 3
v 196 24
v 197 7
v 198 23
v 199 22
v 200 17
v 201 16
v 202 16
v 203 24
v 204 12
v 205 5
v 206 0
v 207 9
v 208 9
v 209 16
v 210 20
v 211 13
v 212 26
v 213 19
v 214 10
v 215 19
v 216 2
v 217 17
v 218 10
v 219 3
v 220 18
v 221 25
v 222 5
v 223 14
v 224 14
v 225 4
v 226 6
v 227 21
v 228 9
v 229 6
v 230 3
v 231 1
v 232 8
v 233 25
v 234 22
v 235 1
v 236 7
v 237 2
v 238 8
v 239 21
v 240 11
v 241 18
v 242 0
v 243 15
v 244 25
v 245 8
v 246 0
v 247 16
v 248 13
v 249 12
v 250 11
v 251 19
v 252 24
v 253 10
v 254 26
v 255 23
v 256 10
v 257 20
v 258 5
v 259 14
v 260 14
v 261 16
v 262 15
v 263 17
v 264 9
v 265 19
v 266 12
v 267 24
v 268 5
v 269 20
v 270 17
v 271 9
v 272 23
v 273 2
v 274 7
v 275 1
v 276 4
v 277 22
v 278 25
v 279 3
v 280 21
v 281 22
v 282 6
v 283 25
v 284 8
v 285 7
v 286 11
v 287 6
v 288 11
v 289 26
v 290 26
v 291 8
v 292 13
v 293 21
v 294 18
v 295 23
v 296 10
v 297 15
v 298 13
v 299 18
v 300 14
v 301 3
v 302 5
v 303 12
v 304 20
v 305 16
v 306 17
v 307 9
v 308 5
v 309 2
v 310 24
v 311 10
v 312 20
v 313 1
v 314 12
v 315 4
v 316 0
v 317 16
v 318 3
v 319 24
v 320 7
v 321 19
v 322 25
v 323 15
v 324 11
v 325 26
v 326 4
v 327 23
v 328 6
v 329 11
v 330 23
v 331 22
v 332 21
v 333 25
v 334 18
v 335 14
v 336 18
v 337 13
v 338 8
v 339 19
v 340 4
v 341 22
v 342 9
v 343 17
v 344 6
v 345 9
v 346 10
v 347 26
v 348 13
v 349 12
v 350 5
v 351 2
v 352 10
v 353 1
v 354 0
v 355 3
v 356 19
v 357 16
v 358 16
v 359 20
v 360 7
v 361 20
v 362 7
v 363 8
v 364 12
v 365 2
v 366 24
v 367 4
v 368 21
v 369 25
v 370 14
v 371 4
v 372 15
v 373 21
v 374 13
v 375 23
v 376 14
v 377 11
v 378 17
v 379 18
v 380 6
v 381 25
v 382 15
v 383 26
v 384 22
v 385 5
v 386 23
v 387 11
v 388 10
v 389 17
v 390 9
v 391 22
v 392 9
v 393 15
v 394 3
v 395 19
v 396 10
v 397 0
v 398 7
v 399 18
v 400 20
v 401 8
v 402 16
v 403 26
v 404 24
v 405 14
v 406 1
v 407 6
v 408 21
v 409 20
v 410 2
v 411 7
v 412 4
v 413 12
v 414 12
v 415 6
v 416 13
v 417 8
v 418 13
v 419 19
v 420 4
v 421 14
v 422 23
v 423 5
v 424 10
v 425 25
v 426 15
v 427 17
v 428 11
v 429 25
v 430 19
v 431 1
v 432 3
v 433 10
v 434 4
v 435 0
v 436 11
v 437 18
v 438 18
v 439 22
v 440 26
v 441 2
v 442 24
v 443 15
v 444 16
v 445 21
v 446 20
v 447 20
v 448 17
v 449 24
v 450 22
v 451 7
v 452 16
v 453 13
v 454 12
v 455 9
v 456 0
v 457 17
v 458 7
v 459 9
v 460 23
v 461 25
v 462 26
v 463 5
v 464 21
v 465 14
v 466 19
v 467 6
v 468 1
v 469 3
v 470 4
v 471 11
v 472 5
v 473 18
v 474 4
v 475 18
v 476 3
v 477 11
v 478 19
v 479 2
v 480 15
v 481 8
v 482 2
v 483 12
v 484 20
v 485 21
v 486 20
v 487 16
v 488 22
v 489 23
v 490 13
v 491 24
v 492 12
v 493 10
v 494 7
v 495 16
v 496 17
v 497 13
v 498 24
v 499 9
v 500 14
v 501 23
v 502 22
v 503 0
v 504 6
v 505 25
v 506 1
v 507 21
v 508 5
v 509 25
v 510 4
v 511 24
v 512 3
v 513 17
v 514 18
v 515 15
v 516 19
v 517 11
v 518 14
v 519 2
v 520 8
v 521 1
v 522 26
v 523 5
v 524 7
v 525 20
v 526 11
v 527 20
v 528 26
v 529 8
v 530 5
v 531 19
v 532 12
v 533 17
v 534 13
v 535 16
v 536 10
v 537 9
v 538 10
v 539 22
v 540 13
v 541 22
v 542 12
v 543 23
v 544 6
v 545 0
v 546 21
v 547 16
v 548 14
v 549 17
v 550 4
v 551 15
v 552 25
v 553 24
v 554 25
v 555 18
v 556 6
v 557 14
v 558 18
v 559 1
v 560 1
v 561 2
v 562 20
v 563 24
v 564 11
v 565 7
v 566 26
v 567 4
v 568 4
v 569 19
v 570 20
v 571 7
v 572 8
v 573 9
v 574 9
v 575 16
v 576 22
v 577 5
v 578 2
v 579 3
v 580 10
v 581 21
v 582 23
v 583 11
v 584 23
v 585 8
v 586 10
v 587 15
v 588 0
v 589 25
v 590 13
v 591 6
v 592 14
v 593 6
v 594 21
v 595 18
v 596 5
v 597 1
v 598 1
v 599 13
v 600 12
v 601 14
v 602 18
v 603 17
v 604 6
v 605 15
v 606 7
v 607 17
v 608 7
v 609 26
v 610 19
v 611 19
v 612 9
v 613 20
v 614 16
v 615 9
v 616 16
v 617 3
v 618 24
v 619 22
v 620 24
v 621 11
v 622 23
v 623 18
v 624 4
v 625 23
v 626 8
v 627 2
v 628 3
v 629 21
v 630 25
v 631 11
v 632 20
v 633 26
v 634 10
v 635 10
v 636 0
v 637 1
v 638 12
v 639 14
v 640 1
v 641 13
v 642 17
v 643 7
v 644 15
v 645 7
v 646 19
v 647 5
v 648 20
v 649 25
v 650 14
v 651 6
v 652 9
v 653 5
v 654 22
v 655 6
v 656 24
v 657 22
v 658 16
v 659 4
v 660 4
v 661 18
v 662 16
v 663 9
v 664 13
v 665 15
v 666 21
v 667 23
v 668 12
v 669 11
v 670 21
v 671 18
v 672 0
v 673 2
v 674 10
v 675 26
v 676 26
v 677 23
v 678 1
v 679 2
v 680 8
v 681 17
v 682 13
v 683 19
v 684 3
v 685 1
v 686 19
v 687 7
v 688 5
v 689 14
